20
1 0 3
2 0 4
2 1 3
3 0 5
3 1 3
3 2 2
4 0 2
4 1 3
4 2 3
4 3 5
5 0 7
5 1 2
5 2 3
5 3 3
5 4 1
6 0 2
6 1 5
6 2 4
6 3 4
6 4 1
6 5 7
7 0 3
7 1 6
7 2 5
7 3 6
7 4 4
7 5 4
7 6 1
8 0 2
8 1 3
8 2 1
8 3 7
8 4 5
8 5 1
8 6 6
8 7 2
9 0 4
9 1 3
9 2 3
9 3 2
9 4 5
9 5 3
9 6 6
9 7 1
9 8 3
10 0 7
10 1 4
10 2 1
10 3 2
10 4 7
10 5 3
10 6 6
10 7 1
10 8 1
10 9 5
11 0 6
11 1 6
11 2 4
11 3 2
11 4 5
11 5 4
11 6 4
11 7 4
11 8 6
11 9 2
11 10 4
12 0 4
12 1 4
12 2 4
12 3 5
12 4 7
12 5 7
12 6 5
12 7 6
12 8 2
12 9 5
12 10 4
12 11 4
13 0 5
13 1 3
13 2 3
13 3 6
13 4 3
13 5 1
13 6 2
13 7 2
13 8 6
13 9 7
13 10 7
13 11 5
13 12 2
14 0 2
14 1 6
14 2 2
14 3 4
14 4 7
14 5 5
14 6 5
14 7 2
14 8 5
14 9 1
14 10 6
14 11 2
14 12 7
14 13 1
15 0 4
15 1 2
15 2 3
15 3 5
15 4 2
15 5 4
15 6 2
15 7 2
15 8 4
15 9 4
15 10 7
15 11 2
15 12 3
15 13 5
15 14 2
16 0 7
16 1 3
16 2 1
16 3 7
16 4 2
16 5 7
16 6 3
16 7 2
16 8 4
16 9 4
16 10 4
16 11 1
16 12 3
16 13 7
16 14 5
16 15 4
17 0 1
17 1 7
17 2 4
17 3 5
17 4 7
17 5 6
17 6 6
17 7 1
17 8 7
17 9 2
17 10 5
17 11 1
17 12 6
17 13 6
17 14 1
17 15 6
17 16 6
18 0 1
18 1 4
18 2 5
18 3 3
18 4 5
18 5 4
18 6 5
18 7 1
18 8 5
18 9 5
18 10 5
18 11 4
18 12 5
18 13 4
18 14 5
18 15 5
18 16 6
18 17 1
19 0 6
19 1 6
19 2 4
19 3 6
19 4 7
19 5 7
19 6 3
19 7 3
19 8 7
19 9 7
19 10 4
19 11 5
19 12 2
19 13 7
19 14 4
19 15 3
19 16 5
19 17 6
19 18 3
